% n20w180.004    66.05 355
numLocations = 21;
duration = duration = duration = duration = [|0, 39, 22, 14, 22, 24, 46, 19, 22, 48, 10, 17, 42, 33, 42, 38, 41, 16, 5, 26, 2... ]; // array too long to display, dimensions: (30)
 // array too long to display, dimensions: (421)

early = [0, 67, 0, 2, 52, 150, 125, 0, 0, 99, 0, 0, 225, 79, 50, 199, 136, 0, 0, 0, 200];
late = late = [483, 265, 170, 170, 191, 291, 283, 146, 140, 285, 76, 170, 441, 218, 256, 356, 2... ]; // array too long to display, dimensions: (21)
